\ENCODING=ISO-8859-1
\Problem name: ilog.cplex

Minimize
 obj1: 100466 x1 + 99454 x2 + 105428 x3 + 90123 x4 + 109888 x5 + 107640 x6
       + 108430 x7 + 105019 x8 + 107140 x9 + 102333 x10 + 93879 x11
       + 103849 x12 + 103982 x13 + 106831 x14 + 97141 x15 + 104101 x16
       + 105057 x17 + 105690 x18 + 102355 x19 + 99341 x20 + 92723 x21
       + 92062 x22 + 95553 x23 + 104846 x24 + 108518 x25 + 97461 x26
       + 91561 x27 + 100088 x28 + 96209 x29 + 101440 x30 + 109730 x31
       + 109759 x32 + 90433 x33 + 92231 x34 + 92896 x35 + 91445 x36 + 99653 x37
       + 93675 x38 + 99015 x39 + 105124 x40 + 102508 x41 + 108616 x42
       + 105567 x43 + 107330 x44 + 92541 x45 + 94418 x46 + 93061 x47
       + 101122 x48 + 107934 x49 + 102394 x50 + 99647 x51 + 106428 x52
       + 108866 x53 + 107278 x54 + 109222 x55 + 90872 x56 + 101421 x57
       + 99748 x58 + 92419 x59 + 105196 x60 + 91914 x61 + 103283 x62
       + 95759 x63 + 102610 x64 + 95955 x65 + 102285 x66 + 94320 x67
       + 105030 x68 + 94846 x69 + 95278 x70 + 103024 x71 + 106155 x72
       + 96722 x73 + 98449 x74 + 97946 x75 + 105185 x76 + 96474 x77 + 98904 x78
       + 90828 x79 + 97095 x80 + 108425 x81 + 101616 x82 + 91731 x83
       + 107863 x84 + 100285 x85 + 91849 x86 + 97090 x87 + 101242 x88
       + 92097 x89 + 98303 x90 + 93468 x91 + 97408 x92 + 99661 x93 + 91319 x94
       + 90882 x95 + 93209 x96 + 98381 x97 + 105186 x98 + 93832 x99
       + 98777 x100 + 105886 x101 + 96351 x102 + 95777 x103 + 96248 x104
       + 99740 x105 + 108724 x106 + 93627 x107 + 103045 x108 + 97733 x109
       + 107953 x110 + 94944 x111 + 104422 x112 + 106268 x113 + 95454 x114
       + 98720 x115 + 96378 x116 + 109868 x117 + 103128 x118 + 104494 x119
       + 93871 x120 + 105555 x121 + 97119 x122 + 93056 x123 + 100553 x124
       + 109898 x125 + 95725 x126 + 108011 x127 + 108774 x128 + 96136 x129
       + 93383 x130 + 92728 x131 + 104281 x132 + 104428 x133 + 105251 x134
       + 108159 x135 + 90474 x136 + 109546 x137 + 90283 x138 + 93598 x139
       + 98219 x140 + 107235 x141 + 94556 x142 + 94645 x143 + 108964 x144
       + 92976 x145 + 101216 x146 + 90488 x147 + 91247 x148 + 95024 x149
       + 98526 x150 + 103357 x151 + 93715 x152 + 91108 x153 + 107747 x154
       + 103855 x155 + 93781 x156 + 104914 x157 + 100497 x158 + 92064 x159
       + 93665 x160 + 93204 x161 + 95422 x162 + 104991 x163 + 101153 x164
       + 92230 x165 + 99192 x166 + 100868 x167 + 109133 x168 + 106413 x169
       + 98410 x170 + 106312 x171 + 96153 x172 + 91124 x173 + 90665 x174
       + 99618 x175 + 100105 x176 + 109722 x177 + 93108 x178 + 105627 x179
       + 100721 x180 + 94340 x181 + 106870 x182 + 108356 x183 + 90705 x184
       + 98532 x185 + 100001 x186 + 99078 x187 + 104994 x188 + 99118 x189
       + 91681 x190 + 109508 x191 + 92998 x192 + 104442 x193 + 96035 x194
       + 92510 x195 + 99609 x196 + 96726 x197 + 95215 x198 + 105962 x199
       + 107358 x200 + 104311 x201 + 95590 x202 + 104782 x203 + 97613 x204
       + 100108 x205 + 103710 x206 + 90693 x207 + 90430 x208 + 96043 x209
       + 94361 x210 + 106903 x211 + 93962 x212 + 104117 x213 + 99731 x214
       + 91370 x215 + 104726 x216 + 104741 x217 + 106246 x218 + 99870 x219
       + 105326 x220 + 93086 x221 + 103414 x222 + 101510 x223 + 97949 x224
       + 90024 x225 + 100920 x226 + 101273 x227 + 100262 x228 + 105201 x229
       + 94189 x230 + 103779 x231 + 107208 x232 + 96986 x233 + 95364 x234
       + 99973 x235 + 101769 x236 + 96862 x237 + 94022 x238 + 101580 x239
       + 97926 x240 + 94299 x241 + 109939 x242 + 106956 x243 + 99842 x244
       + 92208 x245 + 108799 x246 + 96336 x247 + 102738 x248 + 102820 x249
       + 158693 x250 + 19235 x251 + 20433 x252 + 21960 x253 + 19456 x254
       + 18987 x255 + 21146 x256 + 18929 x257 + 18715 x258 + 18670 x259
       + 19983 x260 + 21092 x261 + 20821 x262 + 19831 x263 + 19788 x264
       + 21598 x265 + 19686 x266 + 20838 x267 + 18244 x268 + 20442 x269
       + 18836 x270 + 21646 x271 + 19117 x272 + 19007 x273 + 18627 x274
       + 19502 x275 + 20200 x276 + 20584 x277 + 20828 x278 + 20967 x279
       + 18144 x280 + 19512 x281 + 21738 x282 + 19769 x283 + 21186 x284
       + 21450 x285 + 18081 x286 + 18565 x287 + 21077 x288 + 19497 x289
       + 18362 x290 + 21592 x291 + 21127 x292 + 19481 x293 + 20179 x294
       + 18448 x295 + 20281 x296 + 18720 x297 + 21191 x298 + 20950 x299
       + 21482 x300
Subject To
 c1:   x9 - x12 + x13 - x16 - x19 - x20 + x25 + x33 - x34 + x38 + x47  = 0
 c2:   x59 - x62 + x63 - x66 - x69 - x70 + x75 + x83 - x84 + x88 + x97  = -1
 c3:   x109 - x112 + x113 - x116 - x119 - x120 + x125 + x133 - x134 + x138
       + x147  = 0
 c4:   x159 - x162 + x163 - x166 - x169 - x170 + x175 + x183 - x184 + x188
       + x197  = 0
 c5:   x209 - x212 + x213 - x216 - x219 - x220 + x225 + x233 - x234 + x238
       + x247  = 0
 c6:   - x4 + x14 - x15 + x17 + x18 - x38 + x42 + x44  = -1
 c7:   - x54 + x64 - x65 + x67 + x68 - x88 + x92 + x94  = 0
 c8:   - x104 + x114 - x115 + x117 + x118 - x138 + x142 + x144  = 1
 c9:   - x154 + x164 - x165 + x167 + x168 - x188 + x192 + x194  = 1
 c10:  - x204 + x214 - x215 + x217 + x218 - x238 + x242 + x244  = 0
 c11:  x2 - x9 - x11 - x24 + x26 - x28 + x32 + x36 - x42 - x49 - x50  = 0
 c12:  x52 - x59 - x61 - x74 + x76 - x78 + x82 + x86 - x92 - x99 - x100  = 0
 c13:  x102 - x109 - x111 - x124 + x126 - x128 + x132 + x136 - x142 - x149
       - x150  = 0
 c14:  x152 - x159 - x161 - x174 + x176 - x178 + x182 + x186 - x192 - x199
       - x200  = 0
 c15:  x202 - x209 - x211 - x224 + x226 - x228 + x232 + x236 - x242 - x249
       - x250  = 0
 c16:  - x1 - x2 + x7 - x8 + x15 + x21 - x31 + x45 + x46 + x50  = 0
 c17:  - x51 - x52 + x57 - x58 + x65 + x71 - x81 + x95 + x96 + x100  = 0
 c18:  - x101 - x102 + x107 - x108 + x115 + x121 - x131 + x145 + x146 + x150
        = 0
 c19:  - x151 - x152 + x157 - x158 + x165 + x171 - x181 + x195 + x196 + x200
        = 0
 c20:  - x201 - x202 + x207 - x208 + x215 + x221 - x231 + x245 + x246 + x250
        = 0
 c21:  x4 + x5 - x6 + x11 + x12 - x27 - x36 + x40 - x46 - x47  = 0
 c22:  x54 + x55 - x56 + x61 + x62 - x77 - x86 + x90 - x96 - x97  = 0
 c23:  x104 + x105 - x106 + x111 + x112 - x127 - x136 + x140 - x146 - x147  = 0
 c24:  x154 + x155 - x156 + x161 + x162 - x177 - x186 + x190 - x196 - x197  = 0
 c25:  x204 + x205 - x206 + x211 + x212 - x227 - x236 + x240 - x246 - x247  = 1
 c26:  x6 - x10 + x16 - x18 - x26 + x28 + x30 - x33 - x35 + x37 - x39 - x48
        = 0
 c27:  x56 - x60 + x66 - x68 - x76 + x78 + x80 - x83 - x85 + x87 - x89 - x98
        = 1
 c28:  x106 - x110 + x116 - x118 - x126 + x128 + x130 - x133 - x135 + x137
       - x139 - x148  = 0
 c29:  x156 - x160 + x166 - x168 - x176 + x178 + x180 - x183 - x185 + x187
       - x189 - x198  = 0
 c30:  x206 - x210 + x216 - x218 - x226 + x228 + x230 - x233 - x235 + x237
       - x239 - x248  = 0
 c31:  - x7 - x14 - x23 + x24 - x25 - x29 - x30 - x32 + x34 + x48  = 0
 c32:  - x57 - x64 - x73 + x74 - x75 - x79 - x80 - x82 + x84 + x98  = 0
 c33:  - x107 - x114 - x123 + x124 - x125 - x129 - x130 - x132 + x134 + x148
        = -1
 c34:  - x157 - x164 - x173 + x174 - x175 - x179 - x180 - x182 + x184 + x198
        = 0
 c35:  - x207 - x214 - x223 + x224 - x225 - x229 - x230 - x232 + x234 + x248
        = 0
 c36:  x3 + x8 + x20 + x23 + x27 - x37 + x39 - x40 - x43 - x45 + x49  = 0
 c37:  x53 + x58 + x70 + x73 + x77 - x87 + x89 - x90 - x93 - x95 + x99  = 0
 c38:  x103 + x108 + x120 + x123 + x127 - x137 + x139 - x140 - x143 - x145
       + x149  = 0
 c39:  x153 + x158 + x170 + x173 + x177 - x187 + x189 - x190 - x193 - x195
       + x199  = 0
 c40:  x203 + x208 + x220 + x223 + x227 - x237 + x239 - x240 - x243 - x245
       + x249  = 0
 c41:  x1 - x3 - x17 - x21 + x22 + x35 - x41  = 1
 c42:  x51 - x53 - x67 - x71 + x72 + x85 - x91  = 0
 c43:  x101 - x103 - x117 - x121 + x122 + x135 - x141  = 0
 c44:  x151 - x153 - x167 - x171 + x172 + x185 - x191  = -1
 c45:  x201 - x203 - x217 - x221 + x222 + x235 - x241  = 0
 c46:  - x5 + x10 - x13 + x19 - x22 + x29 + x31 + x41 + x43 - x44  = 0
 c47:  - x55 + x60 - x63 + x69 - x72 + x79 + x81 + x91 + x93 - x94  = 0
 c48:  - x105 + x110 - x113 + x119 - x122 + x129 + x131 + x141 + x143 - x144
        = 0
 c49:  - x155 + x160 - x163 + x169 - x172 + x179 + x181 + x191 + x193 - x194
        = 0
 c50:  - x205 + x210 - x213 + x219 - x222 + x229 + x231 + x241 + x243 - x244
        = -1
 c51:  4 x1 + 4 x51 + 4 x101 + 4 x151 + 4 x201 - 2 x251 <= 0
 c52:  4 x2 + 4 x52 + 4 x102 + 4 x152 + 4 x202 - 2 x252 <= 0
 c53:  4 x3 + 4 x53 + 4 x103 + 4 x153 + 4 x203 - 2 x253 <= 0
 c54:  4 x4 + 4 x54 + 4 x104 + 4 x154 + 4 x204 - 2 x254 <= 0
 c55:  4 x5 + 4 x55 + 4 x105 + 4 x155 + 4 x205 - 2 x255 <= 0
 c56:  4 x6 + 4 x56 + 4 x106 + 4 x156 + 4 x206 - 2 x256 <= 0
 c57:  4 x7 + 4 x57 + 4 x107 + 4 x157 + 4 x207 - 2 x257 <= 0
 c58:  4 x8 + 4 x58 + 4 x108 + 4 x158 + 4 x208 - 2 x258 <= 0
 c59:  4 x9 + 4 x59 + 4 x109 + 4 x159 + 4 x209 - 2 x259 <= 0
 c60:  4 x10 + 4 x60 + 4 x110 + 4 x160 + 4 x210 - 2 x260 <= 0
 c61:  4 x11 + 4 x61 + 4 x111 + 4 x161 + 4 x211 - 2 x261 <= 0
 c62:  4 x12 + 4 x62 + 4 x112 + 4 x162 + 4 x212 - 2 x262 <= 0
 c63:  4 x13 + 4 x63 + 4 x113 + 4 x163 + 4 x213 - 2 x263 <= 0
 c64:  4 x14 + 4 x64 + 4 x114 + 4 x164 + 4 x214 - 2 x264 <= 0
 c65:  4 x15 + 4 x65 + 4 x115 + 4 x165 + 4 x215 - 2 x265 <= 0
 c66:  4 x16 + 4 x66 + 4 x116 + 4 x166 + 4 x216 - 2 x266 <= 0
 c67:  4 x17 + 4 x67 + 4 x117 + 4 x167 + 4 x217 - 2 x267 <= 0
 c68:  4 x18 + 4 x68 + 4 x118 + 4 x168 + 4 x218 - 2 x268 <= 0
 c69:  4 x19 + 4 x69 + 4 x119 + 4 x169 + 4 x219 - 2 x269 <= 0
 c70:  4 x20 + 4 x70 + 4 x120 + 4 x170 + 4 x220 - 2 x270 <= 0
 c71:  4 x21 + 4 x71 + 4 x121 + 4 x171 + 4 x221 - 2 x271 <= 0
 c72:  4 x22 + 4 x72 + 4 x122 + 4 x172 + 4 x222 - 2 x272 <= 0
 c73:  4 x23 + 4 x73 + 4 x123 + 4 x173 + 4 x223 - 2 x273 <= 0
 c74:  4 x24 + 4 x74 + 4 x124 + 4 x174 + 4 x224 - 2 x274 <= 0
 c75:  4 x25 + 4 x75 + 4 x125 + 4 x175 + 4 x225 - 2 x275 <= 0
 c76:  4 x26 + 4 x76 + 4 x126 + 4 x176 + 4 x226 - 2 x276 <= 0
 c77:  4 x27 + 4 x77 + 4 x127 + 4 x177 + 4 x227 - 2 x277 <= 0
 c78:  4 x28 + 4 x78 + 4 x128 + 4 x178 + 4 x228 - 2 x278 <= 0
 c79:  4 x29 + 4 x79 + 4 x129 + 4 x179 + 4 x229 - 2 x279 <= 0
 c80:  4 x30 + 4 x80 + 4 x130 + 4 x180 + 4 x230 - 2 x280 <= 0
 c81:  4 x31 + 4 x81 + 4 x131 + 4 x181 + 4 x231 - 2 x281 <= 0
 c82:  4 x32 + 4 x82 + 4 x132 + 4 x182 + 4 x232 - 2 x282 <= 0
 c83:  4 x33 + 4 x83 + 4 x133 + 4 x183 + 4 x233 - 2 x283 <= 0
 c84:  4 x34 + 4 x84 + 4 x134 + 4 x184 + 4 x234 - 2 x284 <= 0
 c85:  4 x35 + 4 x85 + 4 x135 + 4 x185 + 4 x235 - 2 x285 <= 0
 c86:  4 x36 + 4 x86 + 4 x136 + 4 x186 + 4 x236 - 2 x286 <= 0
 c87:  4 x37 + 4 x87 + 4 x137 + 4 x187 + 4 x237 - 2 x287 <= 0
 c88:  4 x38 + 4 x88 + 4 x138 + 4 x188 + 4 x238 - 2 x288 <= 0
 c89:  4 x39 + 4 x89 + 4 x139 + 4 x189 + 4 x239 - 2 x289 <= 0
 c90:  4 x40 + 4 x90 + 4 x140 + 4 x190 + 4 x240 - 2 x290 <= 0
 c91:  4 x41 + 4 x91 + 4 x141 + 4 x191 + 4 x241 - 2 x291 <= 0
 c92:  4 x42 + 4 x92 + 4 x142 + 4 x192 + 4 x242 - 2 x292 <= 0
 c93:  4 x43 + 4 x93 + 4 x143 + 4 x193 + 4 x243 - 2 x293 <= 0
 c94:  4 x44 + 4 x94 + 4 x144 + 4 x194 + 4 x244 - 2 x294 <= 0
 c95:  4 x45 + 4 x95 + 4 x145 + 4 x195 + 4 x245 - 2 x295 <= 0
 c96:  4 x46 + 4 x96 + 4 x146 + 4 x196 + 4 x246 - 2 x296 <= 0
 c97:  4 x47 + 4 x97 + 4 x147 + 4 x197 + 4 x247 - 2 x297 <= 0
 c98:  4 x48 + 4 x98 + 4 x148 + 4 x198 + 4 x248 - 2 x298 <= 0
 c99:  4 x49 + 4 x99 + 4 x149 + 4 x199 + 4 x249 - 2 x299 <= 0
 c100: 4 x50 + 4 x100 + 4 x150 + 4 x200 + 4 x250 - 2 x300 <= 0
Bounds
 0 <= x1 <= 1
 0 <= x2 <= 1
 0 <= x3 <= 1
 0 <= x4 <= 1
 0 <= x5 <= 1
 0 <= x6 <= 1
 0 <= x7 <= 1
 0 <= x8 <= 1
 0 <= x9 <= 1
 0 <= x10 <= 1
 0 <= x11 <= 1
 0 <= x12 <= 1
 0 <= x13 <= 1
 0 <= x14 <= 1
 0 <= x15 <= 1
 0 <= x16 <= 1
 0 <= x17 <= 1
 0 <= x18 <= 1
 0 <= x19 <= 1
 0 <= x20 <= 1
 0 <= x21 <= 1
 0 <= x22 <= 1
 0 <= x23 <= 1
 0 <= x24 <= 1
 0 <= x25 <= 1
 0 <= x26 <= 1
 0 <= x27 <= 1
 0 <= x28 <= 1
 0 <= x29 <= 1
 0 <= x30 <= 1
 0 <= x31 <= 1
 0 <= x32 <= 1
 0 <= x33 <= 1
 0 <= x34 <= 1
 0 <= x35 <= 1
 0 <= x36 <= 1
 0 <= x37 <= 1
 0 <= x38 <= 1
 0 <= x39 <= 1
 0 <= x40 <= 1
 0 <= x41 <= 1
 0 <= x42 <= 1
 0 <= x43 <= 1
 0 <= x44 <= 1
 0 <= x45 <= 1
 0 <= x46 <= 1
 0 <= x47 <= 1
 0 <= x48 <= 1
 0 <= x49 <= 1
 0 <= x50 <= 1
 0 <= x51 <= 1
 0 <= x52 <= 1
 0 <= x53 <= 1
 0 <= x54 <= 1
 0 <= x55 <= 1
 0 <= x56 <= 1
 0 <= x57 <= 1
 0 <= x58 <= 1
 0 <= x59 <= 1
 0 <= x60 <= 1
 0 <= x61 <= 1
 0 <= x62 <= 1
 0 <= x63 <= 1
 0 <= x64 <= 1
 0 <= x65 <= 1
 0 <= x66 <= 1
 0 <= x67 <= 1
 0 <= x68 <= 1
 0 <= x69 <= 1
 0 <= x70 <= 1
 0 <= x71 <= 1
 0 <= x72 <= 1
 0 <= x73 <= 1
 0 <= x74 <= 1
 0 <= x75 <= 1
 0 <= x76 <= 1
 0 <= x77 <= 1
 0 <= x78 <= 1
 0 <= x79 <= 1
 0 <= x80 <= 1
 0 <= x81 <= 1
 0 <= x82 <= 1
 0 <= x83 <= 1
 0 <= x84 <= 1
 0 <= x85 <= 1
 0 <= x86 <= 1
 0 <= x87 <= 1
 0 <= x88 <= 1
 0 <= x89 <= 1
 0 <= x90 <= 1
 0 <= x91 <= 1
 0 <= x92 <= 1
 0 <= x93 <= 1
 0 <= x94 <= 1
 0 <= x95 <= 1
 0 <= x96 <= 1
 0 <= x97 <= 1
 0 <= x98 <= 1
 0 <= x99 <= 1
 0 <= x100 <= 1
 0 <= x101 <= 1
 0 <= x102 <= 1
 0 <= x103 <= 1
 0 <= x104 <= 1
 0 <= x105 <= 1
 0 <= x106 <= 1
 0 <= x107 <= 1
 0 <= x108 <= 1
 0 <= x109 <= 1
 0 <= x110 <= 1
 0 <= x111 <= 1
 0 <= x112 <= 1
 0 <= x113 <= 1
 0 <= x114 <= 1
 0 <= x115 <= 1
 0 <= x116 <= 1
 0 <= x117 <= 1
 0 <= x118 <= 1
 0 <= x119 <= 1
 0 <= x120 <= 1
 0 <= x121 <= 1
 0 <= x122 <= 1
 0 <= x123 <= 1
 0 <= x124 <= 1
 0 <= x125 <= 1
 0 <= x126 <= 1
 0 <= x127 <= 1
 0 <= x128 <= 1
 0 <= x129 <= 1
 0 <= x130 <= 1
 0 <= x131 <= 1
 0 <= x132 <= 1
 0 <= x133 <= 1
 0 <= x134 <= 1
 0 <= x135 <= 1
 0 <= x136 <= 1
 0 <= x137 <= 1
 0 <= x138 <= 1
 0 <= x139 <= 1
 0 <= x140 <= 1
 0 <= x141 <= 1
 0 <= x142 <= 1
 0 <= x143 <= 1
 0 <= x144 <= 1
 0 <= x145 <= 1
 0 <= x146 <= 1
 0 <= x147 <= 1
 0 <= x148 <= 1
 0 <= x149 <= 1
 0 <= x150 <= 1
 0 <= x151 <= 1
 0 <= x152 <= 1
 0 <= x153 <= 1
 0 <= x154 <= 1
 0 <= x155 <= 1
 0 <= x156 <= 1
 0 <= x157 <= 1
 0 <= x158 <= 1
 0 <= x159 <= 1
 0 <= x160 <= 1
 0 <= x161 <= 1
 0 <= x162 <= 1
 0 <= x163 <= 1
 0 <= x164 <= 1
 0 <= x165 <= 1
 0 <= x166 <= 1
 0 <= x167 <= 1
 0 <= x168 <= 1
 0 <= x169 <= 1
 0 <= x170 <= 1
 0 <= x171 <= 1
 0 <= x172 <= 1
 0 <= x173 <= 1
 0 <= x174 <= 1
 0 <= x175 <= 1
 0 <= x176 <= 1
 0 <= x177 <= 1
 0 <= x178 <= 1
 0 <= x179 <= 1
 0 <= x180 <= 1
 0 <= x181 <= 1
 0 <= x182 <= 1
 0 <= x183 <= 1
 0 <= x184 <= 1
 0 <= x185 <= 1
 0 <= x186 <= 1
 0 <= x187 <= 1
 0 <= x188 <= 1
 0 <= x189 <= 1
 0 <= x190 <= 1
 0 <= x191 <= 1
 0 <= x192 <= 1
 0 <= x193 <= 1
 0 <= x194 <= 1
 0 <= x195 <= 1
 0 <= x196 <= 1
 0 <= x197 <= 1
 0 <= x198 <= 1
 0 <= x199 <= 1
 0 <= x200 <= 1
 0 <= x201 <= 1
 0 <= x202 <= 1
 0 <= x203 <= 1
 0 <= x204 <= 1
 0 <= x205 <= 1
 0 <= x206 <= 1
 0 <= x207 <= 1
 0 <= x208 <= 1
 0 <= x209 <= 1
 0 <= x210 <= 1
 0 <= x211 <= 1
 0 <= x212 <= 1
 0 <= x213 <= 1
 0 <= x214 <= 1
 0 <= x215 <= 1
 0 <= x216 <= 1
 0 <= x217 <= 1
 0 <= x218 <= 1
 0 <= x219 <= 1
 0 <= x220 <= 1
 0 <= x221 <= 1
 0 <= x222 <= 1
 0 <= x223 <= 1
 0 <= x224 <= 1
 0 <= x225 <= 1
 0 <= x226 <= 1
 0 <= x227 <= 1
 0 <= x228 <= 1
 0 <= x229 <= 1
 0 <= x230 <= 1
 0 <= x231 <= 1
 0 <= x232 <= 1
 0 <= x233 <= 1
 0 <= x234 <= 1
 0 <= x235 <= 1
 0 <= x236 <= 1
 0 <= x237 <= 1
 0 <= x238 <= 1
 0 <= x239 <= 1
 0 <= x240 <= 1
 0 <= x241 <= 1
 0 <= x242 <= 1
 0 <= x243 <= 1
 0 <= x244 <= 1
 0 <= x245 <= 1
 0 <= x246 <= 1
 0 <= x247 <= 1
 0 <= x248 <= 1
 0 <= x249 <= 1
 0 <= x250 <= 1
 0 <= x251 <= 1
 0 <= x252 <= 1
 0 <= x253 <= 1
 0 <= x254 <= 1
 0 <= x255 <= 1
 0 <= x256 <= 1
 0 <= x257 <= 1
 0 <= x258 <= 1
 0 <= x259 <= 1
 0 <= x260 <= 1
 0 <= x261 <= 1
 0 <= x262 <= 1
 0 <= x263 <= 1
 0 <= x264 <= 1
 0 <= x265 <= 1
 0 <= x266 <= 1
 0 <= x267 <= 1
 0 <= x268 <= 1
 0 <= x269 <= 1
 0 <= x270 <= 1
 0 <= x271 <= 1
 0 <= x272 <= 1
 0 <= x273 <= 1
 0 <= x274 <= 1
 0 <= x275 <= 1
 0 <= x276 <= 1
 0 <= x277 <= 1
 0 <= x278 <= 1
 0 <= x279 <= 1
 0 <= x280 <= 1
 0 <= x281 <= 1
 0 <= x282 <= 1
 0 <= x283 <= 1
 0 <= x284 <= 1
 0 <= x285 <= 1
 0 <= x286 <= 1
 0 <= x287 <= 1
 0 <= x288 <= 1
 0 <= x289 <= 1
 0 <= x290 <= 1
 0 <= x291 <= 1
 0 <= x292 <= 1
 0 <= x293 <= 1
 0 <= x294 <= 1
 0 <= x295 <= 1
 0 <= x296 <= 1
 0 <= x297 <= 1
 0 <= x298 <= 1
 0 <= x299 <= 1
 0 <= x300 <= 1
Binaries
 x251  x252  x253  x254  x255  x256  x257  x258  x259  x260  x261  x262  x263 
 x264  x265  x266  x267  x268  x269  x270  x271  x272  x273  x274  x275  x276 
 x277  x278  x279  x280  x281  x282  x283  x284  x285  x286  x287  x288  x289 
 x290  x291  x292  x293  x294  x295  x296  x297  x298  x299  x300 
End
